p wcnf 140 1400
2 -138 -140 0
5 -138 139 0
2 -136 -137 0
7 -129 -139 0
9 -128 129 0
2 -128 130 0
9 -127 -134 0
1 -127 138 0
9 -126 127 0
5 -125 -130 0
5 -125 -127 0
7 -124 -138 0
2 -124 126 0
3 -124 132 0
4 -123 -138 0
2 -122 140 0
8 -120 -130 0
3 -119 132 0
9 -118 -133 0
3 -118 -122 0
9 -115 -123 0
8 -115 -121 0
9 -115 121 0
9 -114 -125 0
6 -114 115 0
6 -114 125 0
9 -114 131 0
9 -113 -120 0
2 -111 -138 0
5 -111 -136 0
9 -111 -118 0
3 -111 -112 0
10 -111 114 0
1 -111 118 0
9 -111 135 0
9 -111 139 0
2 -109 -128 0
8 -109 121 0
9 -109 124 0
10 -109 129 0
3 -108 -127 0
5 -108 117 0
7 -108 132 0
4 -107 -109 0
6 -106 -118 0
10 -105 -125 0
5 -104 -121 0
4 -104 121 0
2 -104 132 0
4 -103 -134 0
6 -102 -127 0
2 -102 103 0
2 -102 110 0
6 -101 -127 0
10 -101 118 0
6 -101 138 0
1 -100 -137 0
9 -100 -132 0
6 -100 -122 0
3 -100 -111 0
4 -99 -117 0
5 -99 -101 0
5 -98 -124 0
4 -98 -107 0
5 -98 -101 0
4 -98 120 0
3 -98 140 0
6 -97 -137 0
2 -97 -136 0
2 -97 -115 0
5 -97 -103 0
3 -97 103 0
6 -97 122 0
2 -97 136 0
6 -96 -140 0
2 -96 108 0
2 -96 111 0
10 -96 131 0
5 -95 -96 0
3 -95 128 0
4 -95 139 0
10 -94 96 0
4 -94 126 0
4 -93 -118 0
6 -93 122 0
4 -92 -101 0
10 -92 -94 0
6 -92 107 0
3 -91 -122 0
5 -91 -109 0
8 -91 -102 0
7 -91 118 0
9 -91 126 0
3 -91 138 0
10 -91 139 0
4 -90 -112 0
5 -90 138 0
3 -89 -138 0
8 -89 -90 0
6 -89 111 0
4 -89 112 0
4 -89 121 0
8 -89 122 0
9 -89 129 0
5 -88 -124 0
4 -88 126 0
10 -88 133 0
5 -88 136 0
4 -87 -128 0
4 -87 -119 0
8 -87 -109 0
6 -87 -104 0
4 -87 -90 0
2 -87 92 0
10 -87 122 0
9 -87 136 0
4 -86 -120 0
9 -86 102 0
5 -86 134 0
7 -85 -139 0
5 -85 -134 0
3 -85 -106 0
3 -85 119 0
3 -84 -88 0
4 -84 129 0
3 -84 134 0
6 -83 -121 0
8 -83 -85 0
4 -83 92 0
4 -83 107 0
4 -83 128 0
7 -83 133 0
7 -83 140 0
2 -82 -140 0
6 -82 -105 0
1 -82 -101 0
5 -82 -89 0
5 -82 -86 0
6 -82 -85 0
7 -82 120 0
9 -81 -109 0
3 -81 -102 0
4 -80 -129 0
3 -80 -113 0
4 -80 98 0
3 -80 121 0
2 -80 123 0
7 -79 -139 0
3 -79 -130 0
6 -79 -129 0
4 -79 -116 0
6 -79 -80 0
7 -79 100 0
6 -79 118 0
9 -79 132 0
1 -78 -101 0
8 -78 -93 0
5 -78 136 0
9 -77 104 0
2 -76 -135 0
8 -76 -87 0
3 -76 90 0
8 -76 116 0
4 -75 -113 0
4 -75 76 0
4 -75 81 0
4 -75 128 0
8 -74 -132 0
8 -74 84 0
9 -74 89 0
5 -74 99 0
7 -74 101 0
2 -74 113 0
8 -73 -136 0
9 -73 -112 0
5 -73 -100 0
1 -73 114 0
1 -73 133 0
2 -73 135 0
3 -72 -122 0
6 -72 -102 0
5 -72 96 0
8 -71 -115 0
3 -71 -106 0
10 -71 -74 0
7 -71 83 0
4 -71 91 0
7 -71 108 0
1 -71 109 0
2 -71 129 0
8 -70 -133 0
8 -70 -131 0
4 -70 -100 0
7 -70 -90 0
2 -70 -71 0
7 -70 73 0
10 -70 102 0
6 -70 114 0
5 -70 130 0
8 -69 -127 0
4 -69 -91 0
9 -69 -82 0
5 -69 84 0
6 -68 -128 0
7 -68 -72 0
4 -68 79 0
9 -68 91 0
8 -68 93 0
4 -68 133 0
1 -67 -129 0
10 -67 -117 0
9 -67 -72 0
5 -66 -121 0
8 -66 -85 0
2 -66 -76 0
5 -66 81 0
5 -66 100 0
5 -66 117 0
2 -65 -117 0
5 -65 -99 0
6 -65 -94 0
10 -65 -85 0
3 -65 -82 0
10 -65 -78 0
6 -65 104 0
4 -65 106 0
7 -64 -126 0
6 -64 -85 0
9 -64 -79 0
2 -64 76 0
4 -64 140 0
3 -63 -95 0
2 -63 -84 0
8 -63 -76 0
8 -63 66 0
8 -63 89 0
2 -62 80 0
7 -62 81 0
5 -62 99 0
6 -62 127 0
8 -61 75 0
5 -61 78 0
5 -61 109 0
3 -60 -126 0
3 -60 -125 0
6 -60 -110 0
7 -60 -100 0
7 -60 94 0
1 -60 99 0
9 -60 122 0
2 -60 137 0
7 -59 -115 0
8 -59 -100 0
4 -59 -71 0
6 -59 70 0
5 -59 97 0
7 -58 -133 0
4 -58 -94 0
9 -58 66 0
6 -58 72 0
5 -58 97 0
3 -57 -116 0
9 -57 -76 0
5 -57 -70 0
1 -57 -67 0
7 -57 -65 0
3 -57 86 0
3 -57 102 0
4 -56 -140 0
8 -56 -132 0
8 -56 -63 0
2 -56 109 0
3 -55 132 0
3 -54 -123 0
4 -54 -87 0
4 -54 -77 0
8 -54 -68 0
10 -54 -63 0
10 -54 -58 0
8 -54 70 0
8 -54 99 0
2 -54 108 0
5 -54 110 0
7 -54 125 0
5 -54 128 0
1 -53 111 0
1 -52 -105 0
2 -52 -95 0
4 -52 -92 0
10 -52 78 0
8 -52 79 0
8 -52 93 0
3 -52 104 0
7 -52 106 0
3 -51 -140 0
4 -51 -138 0
3 -51 -70 0
5 -51 79 0
6 -51 103 0
7 -51 124 0
3 -51 132 0
3 -50 -135 0
7 -50 -88 0
5 -50 -80 0
5 -50 71 0
1 -50 101 0
8 -50 107 0
3 -50 124 0
10 -49 63 0
8 -49 71 0
1 -49 96 0
8 -49 111 0
9 -49 117 0
5 -48 -112 0
5 -48 -92 0
4 -48 69 0
5 -48 134 0
5 -47 -124 0
5 -47 -116 0
8 -47 -79 0
5 -47 -72 0
3 -47 58 0
5 -47 72 0
7 -47 90 0
8 -47 105 0
8 -47 133 0
9 -46 -110 0
2 -46 -82 0
3 -46 114 0
5 -46 127 0
7 -45 -130 0
5 -45 -112 0
7 -45 -85 0
5 -45 -59 0
9 -45 122 0
2 -44 -120 0
5 -44 -103 0
7 -44 60 0
4 -44 71 0
5 -44 91 0
5 -44 92 0
4 -44 130 0
3 -44 133 0
3 -44 136 0
8 -43 -92 0
7 -43 -87 0
6 -43 -83 0
3 -43 -62 0
2 -43 45 0
10 -43 61 0
10 -42 -90 0
6 -42 -89 0
2 -42 -87 0
5 -42 -84 0
3 -42 46 0
10 -42 76 0
3 -42 104 0
2 -41 -133 0
1 -41 -130 0
5 -41 -120 0
6 -41 -89 0
8 -41 -69 0
9 -41 -61 0
3 -41 51 0
3 -41 78 0
8 -41 88 0
4 -41 122 0
7 -40 -140 0
4 -40 -127 0
8 -40 -100 0
2 -40 -98 0
8 -40 -89 0
2 -40 -71 0
4 -40 -47 0
1 -40 42 0
9 -40 43 0
10 -40 44 0
6 -40 78 0
2 -40 83 0
2 -39 -134 0
6 -39 -127 0
2 -39 -111 0
7 -39 -107 0
7 -39 -100 0
7 -39 -55 0
9 -39 -40 0
7 -39 80 0
9 -39 82 0
10 -39 101 0
7 -39 117 0
4 -38 -113 0
6 -38 -103 0
5 -38 -102 0
3 -38 -93 0
8 -38 -85 0
7 -38 67 0
9 -38 102 0
3 -37 -111 0
3 -37 -97 0
3 -37 -76 0
9 -37 48 0
4 -37 63 0
10 -37 82 0
1 -37 114 0
6 -37 140 0
10 -36 -87 0
9 -36 -40 0
6 -36 48 0
6 -36 59 0
2 -36 62 0
7 -36 92 0
2 -36 104 0
3 -36 116 0
4 -35 -122 0
8 -35 -109 0
9 -35 -103 0
3 -35 -101 0
4 -35 -92 0
8 -35 -78 0
3 -35 63 0
1 -35 76 0
1 -34 -79 0
8 -34 104 0
5 -33 -69 0
3 -33 -66 0
6 -33 -36 0
2 -33 70 0
2 -33 71 0
7 -33 85 0
4 -33 97 0
4 -33 124 0
7 -32 -139 0
7 -32 -99 0
4 -32 127 0
7 -31 -140 0
3 -31 -92 0
4 -31 -72 0
6 -30 -140 0
9 -30 -113 0
9 -30 -73 0
7 -30 52 0
6 -30 96 0
9 -30 101 0
9 -30 115 0
10 -29 -134 0
7 -29 -125 0
8 -29 -106 0
3 -29 -73 0
1 -29 -69 0
6 -29 90 0
5 -28 -132 0
2 -28 -113 0
6 -28 -109 0
3 -28 -80 0
6 -28 -75 0
8 -28 88 0
8 -28 95 0
7 -28 99 0
9 -27 -126 0
5 -27 -123 0
1 -27 -119 0
3 -27 -108 0
2 -27 -37 0
7 -27 42 0
6 -27 90 0
8 -27 99 0
9 -27 113 0
9 -27 118 0
4 -27 125 0
8 -27 134 0
8 -26 -107 0
1 -26 -65 0
4 -26 -42 0
7 -26 50 0
9 -26 92 0
3 -26 93 0
4 -26 128 0
8 -25 -122 0
5 -25 -119 0
4 -25 -113 0
4 -25 -99 0
9 -25 -84 0
5 -25 -55 0
9 -25 -46 0
1 -25 61 0
1 -25 62 0
7 -25 126 0
8 -25 135 0
7 -24 -106 0
6 -24 -79 0
3 -24 -69 0
7 -24 -65 0
8 -24 47 0
4 -24 86 0
4 -24 87 0
4 -23 -139 0
1 -23 -124 0
3 -23 -26 0
3 -23 35 0
4 -23 37 0
10 -23 69 0
9 -23 86 0
4 -23 97 0
4 -23 131 0
6 -23 132 0
4 -23 133 0
6 -22 -128 0
9 -22 -126 0
2 -22 -107 0
1 -22 -88 0
4 -22 -57 0
5 -22 47 0
9 -22 54 0
8 -22 57 0
4 -22 61 0
9 -22 68 0
8 -22 132 0
10 -21 -79 0
8 -21 -77 0
5 -21 -36 0
6 -21 -26 0
10 -21 -22 0
2 -21 37 0
4 -21 107 0
4 -21 120 0
5 -21 126 0
7 -20 -126 0
4 -20 -122 0
7 -20 -89 0
8 -20 -87 0
7 -20 -84 0
7 -20 -83 0
7 -20 -79 0
2 -20 -57 0
10 -20 -32 0
4 -19 -82 0
5 -19 -39 0
6 -19 22 0
3 -19 83 0
5 -19 117 0
6 -19 131 0
6 -19 132 0
9 -18 -138 0
5 -18 -129 0
3 -18 -116 0
2 -18 -115 0
5 -18 -80 0
1 -18 -73 0
2 -18 -70 0
2 -18 -47 0
5 -18 24 0
7 -18 99 0
2 -18 104 0
6 -18 107 0
1 -18 134 0
4 -17 -115 0
1 -17 -100 0
7 -17 -89 0
7 -17 -74 0
7 -17 -62 0
5 -17 -44 0
5 -17 -34 0
4 -17 62 0
3 -17 98 0
6 -17 105 0
4 -16 -111 0
5 -16 -100 0
9 -16 -96 0
9 -16 -80 0
8 -16 -74 0
4 -16 -71 0
5 -16 58 0
3 -16 112 0
3 -16 128 0
9 -15 -108 0
6 -15 -91 0
5 -15 -59 0
4 -15 109 0
6 -14 -119 0
6 -14 -94 0
5 -14 -86 0
10 -14 -83 0
3 -14 -61 0
6 -14 -31 0
6 -14 81 0
4 -14 93 0
9 -14 103 0
6 -14 118 0
10 -14 135 0
6 -13 -92 0
3 -13 -71 0
5 -13 -43 0
1 -13 -29 0
6 -13 91 0
7 -13 129 0
6 -13 135 0
10 -12 -136 0
2 -12 -126 0
5 -12 -106 0
9 -12 -89 0
9 -12 -64 0
8 -12 -55 0
4 -12 -51 0
2 -12 14 0
1 -12 20 0
3 -12 50 0
6 -12 80 0
5 -12 109 0
6 -12 127 0
2 -11 -135 0
10 -11 19 0
10 -11 109 0
2 -11 117 0
3 -10 -129 0
5 -10 -127 0
6 -10 -82 0
6 -10 -74 0
4 -10 -68 0
2 -10 32 0
6 -10 51 0
10 -10 76 0
4 -10 110 0
10 -9 -121 0
10 -9 -87 0
9 -9 -78 0
6 -9 -19 0
6 -9 11 0
9 -9 33 0
8 -9 57 0
10 -9 77 0
8 -9 111 0
6 -9 120 0
8 -9 135 0
1 -8 -125 0
7 -8 -94 0
8 -8 -61 0
3 -8 -56 0
4 -8 43 0
3 -8 83 0
8 -8 86 0
5 -8 97 0
2 -8 112 0
8 -7 -82 0
5 -7 -56 0
4 -7 -21 0
3 -7 12 0
1 -6 -137 0
9 -6 -77 0
7 -6 -63 0
2 -6 27 0
5 -6 67 0
6 -6 72 0
5 -6 79 0
5 -6 93 0
6 -5 -132 0
5 -5 -67 0
1 -5 -50 0
2 -5 -40 0
4 -5 46 0
8 -5 88 0
2 -5 96 0
1 -4 -134 0
4 -4 -108 0
8 -4 -12 0
1 -4 52 0
1 -4 76 0
6 -4 83 0
4 -4 93 0
4 -3 -134 0
8 -3 -127 0
2 -3 -123 0
7 -3 -91 0
9 -3 -75 0
8 -3 -62 0
2 -3 -31 0
3 -3 16 0
1 -3 23 0
3 -3 26 0
3 -3 47 0
7 -3 102 0
4 -3 114 0
7 -3 120 0
3 -3 131 0
9 -2 -134 0
1 -2 -117 0
9 -2 -90 0
3 -2 -51 0
1 -2 -6 0
10 -2 13 0
6 -2 82 0
8 -2 83 0
1 -2 125 0
6 -1 -126 0
2 -1 -67 0
9 -1 -54 0
7 -1 -34 0
2 -1 -20 0
5 -1 -5 0
9 -1 58 0
5 -1 72 0
3 -1 91 0
10 -1 117 0
2 -1 118 0
2 -1 140 0
8 1 62 0
3 1 63 0
4 1 80 0
9 1 98 0
5 2 -132 0
6 2 -116 0
5 2 -102 0
8 2 -97 0
2 2 -77 0
8 2 -71 0
7 2 -23 0
3 2 -15 0
6 2 29 0
9 2 64 0
3 2 86 0
6 2 89 0
5 2 94 0
10 2 107 0
7 3 -131 0
2 3 -123 0
2 3 -104 0
5 3 -103 0
7 3 -96 0
3 3 -95 0
9 3 -74 0
6 3 -62 0
6 3 -55 0
2 3 -39 0
6 3 73 0
7 3 75 0
3 3 77 0
4 3 126 0
10 4 -66 0
6 4 5 0
3 4 9 0
5 4 22 0
2 4 51 0
7 4 53 0
3 4 134 0
3 5 -10 0
5 5 12 0
9 5 22 0
5 5 27 0
2 5 99 0
9 5 104 0
7 5 109 0
7 6 -139 0
4 6 -126 0
6 6 -118 0
3 6 -98 0
5 6 -79 0
7 6 58 0
8 6 128 0
2 6 135 0
9 7 -123 0
7 7 -43 0
7 7 -42 0
5 7 -35 0
8 7 10 0
4 7 16 0
3 7 34 0
10 7 75 0
7 7 96 0
2 7 101 0
6 7 118 0
9 7 123 0
6 8 -96 0
6 8 -70 0
6 8 50 0
9 8 52 0
9 8 63 0
1 8 64 0
8 8 66 0
3 8 74 0
2 8 95 0
7 8 106 0
9 8 131 0
8 8 139 0
1 9 -120 0
5 9 -99 0
1 9 -71 0
5 9 -62 0
3 9 14 0
8 9 34 0
6 9 58 0
1 9 112 0
4 10 -136 0
3 10 -93 0
6 10 -91 0
2 10 -74 0
6 10 79 0
7 10 80 0
2 10 91 0
3 10 96 0
8 10 101 0
6 10 112 0
1 11 -114 0
5 11 -82 0
3 11 -70 0
7 11 -43 0
3 11 -12 0
1 11 67 0
7 11 69 0
1 11 100 0
4 12 -122 0
8 12 -118 0
7 12 -37 0
3 12 -35 0
6 12 -15 0
7 12 39 0
7 12 42 0
6 12 56 0
2 12 59 0
9 12 73 0
3 12 106 0
7 13 -113 0
9 13 -94 0
7 13 -73 0
9 13 -30 0
5 13 39 0
8 13 50 0
4 13 55 0
2 13 57 0
9 13 132 0
6 14 -126 0
9 14 -118 0
5 14 -61 0
6 14 -54 0
4 14 -49 0
7 14 -48 0
3 14 -30 0
6 14 -19 0
7 14 66 0
9 14 104 0
7 14 108 0
10 14 126 0
7 15 -79 0
4 15 -67 0
3 15 -62 0
3 15 -47 0
2 15 -45 0
9 15 -28 0
8 15 26 0
3 15 29 0
8 15 57 0
1 15 61 0
9 15 64 0
7 15 100 0
7 15 138 0
8 16 -121 0
1 16 -78 0
5 16 -41 0
2 16 -28 0
2 16 -21 0
4 16 72 0
7 16 80 0
1 16 94 0
8 16 109 0
4 17 -108 0
4 17 -84 0
5 17 -59 0
6 17 -54 0
9 17 24 0
2 17 71 0
5 17 96 0
6 17 102 0
2 17 104 0
2 17 121 0
9 17 126 0
3 17 133 0
5 18 -89 0
10 18 -80 0
2 18 -57 0
3 18 -56 0
3 18 -49 0
9 18 -48 0
3 18 80 0
1 18 119 0
5 19 -126 0
9 19 -122 0
8 19 -113 0
5 19 -111 0
5 19 -55 0
9 19 -46 0
6 19 -22 0
8 19 -21 0
7 19 62 0
6 19 116 0
6 20 -114 0
9 20 -110 0
9 20 -99 0
1 20 -81 0
5 20 -22 0
9 20 38 0
2 20 100 0
9 21 -140 0
5 21 -135 0
3 21 -116 0
2 21 -77 0
4 21 -65 0
6 21 -23 0
5 21 34 0
3 21 57 0
7 21 70 0
7 21 90 0
5 21 128 0
6 21 138 0
9 22 -138 0
5 22 -86 0
10 22 -77 0
8 22 -62 0
3 22 -52 0
5 22 25 0
3 22 135 0
3 23 -83 0
2 23 -72 0
1 23 -66 0
8 23 -52 0
7 23 -47 0
6 23 -40 0
8 23 29 0
7 23 50 0
7 23 71 0
3 23 78 0
5 23 112 0
8 24 -81 0
2 24 -71 0
9 24 -61 0
10 24 -59 0
2 24 84 0
2 24 110 0
5 25 -125 0
6 25 -123 0
5 25 -67 0
2 25 31 0
3 25 43 0
9 25 72 0
7 25 88 0
2 25 99 0
4 25 115 0
7 25 120 0
9 25 121 0
6 26 -135 0
2 26 -104 0
3 26 -96 0
8 26 -94 0
3 26 37 0
3 26 44 0
6 26 47 0
9 26 95 0
8 26 130 0
3 27 -128 0
5 27 -115 0
5 27 -81 0
5 27 -75 0
9 27 -65 0
3 27 50 0
6 27 88 0
8 27 133 0
2 28 -76 0
7 28 30 0
10 28 39 0
7 28 59 0
3 29 -106 0
4 29 -100 0
8 29 -94 0
6 29 -83 0
3 29 52 0
4 29 96 0
7 29 119 0
6 29 128 0
10 30 -117 0
6 30 -92 0
1 30 -83 0
2 30 -50 0
8 30 -43 0
8 30 38 0
3 30 72 0
10 30 73 0
4 30 81 0
2 30 83 0
8 30 98 0
6 30 114 0
6 30 134 0
3 30 140 0
1 31 -120 0
5 31 -91 0
5 31 -88 0
6 31 -70 0
4 31 -67 0
6 31 41 0
3 31 55 0
3 31 78 0
3 32 -137 0
6 32 -134 0
7 32 -91 0
9 32 -67 0
1 32 -49 0
8 32 48 0
4 32 64 0
7 32 79 0
4 33 -104 0
4 33 -85 0
3 33 -67 0
4 33 41 0
4 33 46 0
1 33 57 0
2 33 72 0
7 33 91 0
1 33 123 0
5 33 139 0
8 34 -138 0
8 34 -111 0
2 34 -96 0
4 34 -47 0
1 34 57 0
2 34 89 0
8 34 102 0
5 34 134 0
7 35 -82 0
2 35 -75 0
10 35 -54 0
10 35 -43 0
4 35 55 0
2 35 79 0
5 35 121 0
9 35 126 0
2 36 -139 0
6 36 -126 0
8 36 -99 0
5 36 -97 0
3 36 -45 0
2 36 -37 0
7 36 58 0
5 36 63 0
5 36 81 0
2 36 98 0
6 36 127 0
6 37 -102 0
8 37 -51 0
6 37 124 0
2 37 132 0
5 37 139 0
4 38 -130 0
2 38 -76 0
8 38 -65 0
4 38 44 0
4 38 52 0
6 38 87 0
8 38 116 0
1 38 120 0
7 38 126 0
7 39 -122 0
10 39 -91 0
9 39 -88 0
9 39 72 0
5 39 78 0
9 39 99 0
10 39 105 0
1 39 120 0
7 39 130 0
5 40 -75 0
3 40 -55 0
7 40 54 0
2 40 103 0
8 40 111 0
2 41 -134 0
3 41 -97 0
3 41 -46 0
7 41 74 0
9 41 77 0
8 42 -116 0
8 42 -72 0
5 42 -53 0
2 42 53 0
9 42 71 0
2 42 72 0
5 42 79 0
3 42 86 0
7 42 105 0
2 42 131 0
3 43 -68 0
4 43 -57 0
9 43 62 0
3 43 65 0
3 43 73 0
8 43 84 0
8 44 -119 0
2 44 -99 0
7 44 50 0
8 44 80 0
8 44 106 0
2 45 -138 0
2 45 -136 0
5 45 -110 0
3 45 -96 0
8 45 -67 0
6 45 -52 0
5 45 -48 0
2 45 78 0
3 45 113 0
4 45 125 0
9 46 -133 0
10 46 -131 0
8 46 -87 0
10 46 -72 0
9 46 -69 0
9 46 47 0
4 47 58 0
2 47 61 0
6 47 70 0
6 47 100 0
5 48 -57 0
9 48 54 0
4 48 120 0
7 49 -122 0
2 49 -84 0
2 49 101 0
5 49 113 0
4 49 117 0
8 50 -128 0
3 50 -106 0
1 50 -76 0
9 50 -73 0
3 50 -58 0
5 50 84 0
2 50 94 0
1 50 104 0
10 51 -128 0
6 51 -112 0
2 51 88 0
3 52 -78 0
9 52 125 0
1 53 -138 0
2 53 -121 0
7 53 -118 0
10 53 -117 0
2 53 -97 0
6 53 -56 0
4 53 72 0
3 53 115 0
2 54 -104 0
8 54 -97 0
6 54 -85 0
1 54 -80 0
3 54 -67 0
3 54 -62 0
2 54 65 0
4 54 87 0
7 54 95 0
5 54 119 0
2 54 132 0
8 54 135 0
5 55 -127 0
1 55 -119 0
2 55 -65 0
9 55 -60 0
2 55 72 0
2 55 88 0
9 55 89 0
7 55 91 0
3 55 95 0
2 55 100 0
6 56 -140 0
3 56 69 0
3 56 99 0
3 56 129 0
3 56 132 0
4 57 -112 0
8 57 112 0
6 58 -135 0
6 58 -134 0
9 58 -132 0
4 58 -115 0
2 58 -96 0
9 58 -95 0
6 58 -82 0
4 58 -73 0
1 58 71 0
9 58 79 0
10 58 83 0
5 58 92 0
10 58 93 0
8 58 137 0
9 59 -110 0
10 59 -88 0
9 59 84 0
9 59 86 0
2 59 133 0
10 60 -114 0
8 60 88 0
9 60 93 0
3 60 106 0
8 60 124 0
5 60 140 0
5 61 -124 0
1 61 88 0
7 61 96 0
7 61 98 0
4 62 -116 0
5 62 92 0
3 62 109 0
9 63 -131 0
4 64 -119 0
6 64 74 0
10 64 88 0
2 64 102 0
2 65 -74 0
4 66 -135 0
2 66 -91 0
9 66 129 0
4 66 138 0
7 67 -138 0
9 67 -135 0
2 67 -99 0
6 67 -87 0
9 67 115 0
10 67 126 0
5 68 -131 0
1 68 -99 0
9 68 -90 0
3 68 -86 0
9 68 138 0
2 69 77 0
1 69 90 0
4 69 94 0
6 69 140 0
2 70 -92 0
2 70 94 0
3 70 112 0
5 70 121 0
6 70 136 0
5 70 138 0
3 71 75 0
8 71 88 0
10 71 109 0
3 72 -113 0
9 72 -86 0
1 72 -83 0
6 72 89 0
2 72 102 0
10 72 110 0
9 72 114 0
8 72 117 0
9 72 120 0
10 73 -117 0
4 73 -107 0
8 73 136 0
9 74 -117 0
8 74 -115 0
9 74 -86 0
9 74 -80 0
9 74 85 0
8 74 117 0
1 74 129 0
9 74 138 0
2 75 -112 0
7 75 -94 0
1 75 82 0
3 75 99 0
9 75 127 0
5 76 -139 0
7 76 -113 0
4 76 -111 0
7 76 112 0
5 76 123 0
4 76 131 0
9 77 -122 0
5 77 -105 0
4 77 -96 0
5 77 -78 0
6 77 78 0
4 77 84 0
4 77 133 0
4 78 -129 0
3 78 -126 0
3 78 140 0
6 79 -129 0
1 79 -122 0
3 79 -86 0
4 79 133 0
9 80 -107 0
2 80 -81 0
3 80 92 0
7 80 107 0
2 80 114 0
3 82 -128 0
8 82 -92 0
7 82 117 0
3 82 129 0
9 83 -113 0
7 83 -111 0
7 83 -105 0
7 83 125 0
10 84 -109 0
4 84 100 0
2 85 -125 0
3 85 -95 0
3 85 119 0
6 86 -128 0
7 86 -121 0
7 86 89 0
2 86 101 0
10 87 -99 0
10 87 -92 0
5 87 91 0
3 87 98 0
3 87 105 0
10 87 130 0
3 87 136 0
5 87 137 0
4 88 -139 0
2 88 -110 0
6 88 -98 0
6 88 -93 0
8 88 104 0
6 88 115 0
8 88 118 0
5 88 137 0
4 89 -139 0
1 89 -102 0
5 90 -140 0
9 90 -132 0
7 90 -115 0
1 90 120 0
9 91 -139 0
10 91 129 0
3 91 136 0
3 92 -97 0
3 93 -120 0
8 93 -119 0
8 93 134 0
9 94 -125 0
9 94 -95 0
8 94 123 0
9 95 107 0
3 95 118 0
1 95 121 0
2 95 122 0
3 95 133 0
4 96 -140 0
6 96 -106 0
6 96 -102 0
5 96 101 0
1 97 -125 0
2 97 -113 0
3 97 109 0
7 97 126 0
10 97 127 0
7 98 -116 0
9 98 -109 0
1 99 104 0
2 100 -120 0
9 100 -108 0
7 100 122 0
2 101 -108 0
8 102 -126 0
7 102 -104 0
4 102 107 0
9 102 110 0
8 102 131 0
1 102 133 0
8 103 129 0
7 103 137 0
9 104 -130 0
6 104 -117 0
6 104 -105 0
2 104 124 0
6 105 -108 0
7 105 -106 0
4 105 120 0
9 107 -124 0
2 107 119 0
9 109 111 0
4 110 -127 0
3 110 -121 0
1 110 124 0
6 111 117 0
8 111 128 0
1 112 127 0
3 112 138 0
7 113 -117 0
1 114 -127 0
3 116 133 0
6 119 -133 0
7 120 -139 0
4 122 128 0
4 123 -136 0
4 125 -140 0
7 127 135 0
3 128 -135 0
2 129 -130 0
7 130 -137 0
10 131 -132 0
9 133 -136 0
6 133 134 0
